100
1000
134
675
909
155
279
1000
583
900
128
393
157
759
60
667
758
387
111
482
192
574
420
98
635
221
991
963
244
467
939
327
271
746
664
21
664
357
781
806
697
450
9
760
276
225
29
285
111
357
208
834
355
958
574
929
360
584
204
625
545
273
828
231
645
407
172
997
420
714
761
741
470
377
383
337
95
272
524
958
704
895
495
658
760
791
979
227
835
250
489
351
398
732
633
172
630
142
45
654
345
675
